1227
158
336
630
38
101
1068
605
685
571
555
368
522
175
208
43
444
19
374
321
220
877
259
1041
210
49
276
793
43
923
39
46
377
210
172
203
156
90
883
16
939
43
419
381
623
245
313
112
455
444
490
565
841
500
96
635
60
298
614
383
96
46
425
898
529
302
546
176
32
105
330
76
322
1103
178
937
191
838
49
123
220
524
270
846
13
29
271
664
427
172
599
181
680
31
122
92
268
353
17
113
